c CNF file corresponding to a (partial) station packing problem.
p cnf 3421 229
1 2 3 4 5 6 7 8 9 10 11 12 13 14 0
-1 -2 0
-1 -3 0
-1 -4 0
-1 -5 0
-1 -6 0
-1 -7 0
-1 -8 0
-1 -9 0
-1 -10 0
-1 -11 0
-1 -12 0
-1 -13 0
-1 -14 0
-2 -3 0
-2 -4 0
-2 -5 0
-2 -6 0
-2 -7 0
-2 -8 0
-2 -9 0
-2 -10 0
-2 -11 0
-2 -12 0
-2 -13 0
-2 -14 0
-3 -4 0
-3 -5 0
-3 -6 0
-3 -7 0
-3 -8 0
-3 -9 0
-3 -10 0
-3 -11 0
-3 -12 0
-3 -13 0
-3 -14 0
-4 -5 0
-4 -6 0
-4 -7 0
-4 -8 0
-4 -9 0
-4 -10 0
-4 -11 0
-4 -12 0
-4 -13 0
-4 -14 0
-5 -6 0
-5 -7 0
-5 -8 0
-5 -9 0
-5 -10 0
-5 -11 0
-5 -12 0
-5 -13 0
-5 -14 0
-6 -7 0
-6 -8 0
-6 -9 0
-6 -10 0
-6 -11 0
-6 -12 0
-6 -13 0
-6 -14 0
-7 -8 0
-7 -9 0
-7 -10 0
-7 -11 0
-7 -12 0
-7 -13 0
-7 -14 0
-8 -9 0
-8 -10 0
-8 -11 0
-8 -12 0
-8 -13 0
-8 -14 0
-9 -10 0
-9 -11 0
-9 -12 0
-9 -13 0
-9 -14 0
-10 -11 0
-10 -12 0
-10 -13 0
-10 -14 0
-11 -12 0
-11 -13 0
-11 -14 0
-12 -13 0
-12 -14 0
-13 -14 0
3405 3406 3407 3408 3409 3410 3411 3412 3413 3414 3415 3416 3417 3418 3419 3420 3421 0
-3405 -3406 0
-3405 -3407 0
-3405 -3408 0
-3405 -3409 0
-3405 -3410 0
-3405 -3411 0
-3405 -3412 0
-3405 -3413 0
-3405 -3414 0
-3405 -3415 0
-3405 -3416 0
-3405 -3417 0
-3405 -3418 0
-3405 -3419 0
-3405 -3420 0
-3405 -3421 0
-3406 -3407 0
-3406 -3408 0
-3406 -3409 0
-3406 -3410 0
-3406 -3411 0
-3406 -3412 0
-3406 -3413 0
-3406 -3414 0
-3406 -3415 0
-3406 -3416 0
-3406 -3417 0
-3406 -3418 0
-3406 -3419 0
-3406 -3420 0
-3406 -3421 0
-3407 -3408 0
-3407 -3409 0
-3407 -3410 0
-3407 -3411 0
-3407 -3412 0
-3407 -3413 0
-3407 -3414 0
-3407 -3415 0
-3407 -3416 0
-3407 -3417 0
-3407 -3418 0
-3407 -3419 0
-3407 -3420 0
-3407 -3421 0
-3408 -3409 0
-3408 -3410 0
-3408 -3411 0
-3408 -3412 0
-3408 -3413 0
-3408 -3414 0
-3408 -3415 0
-3408 -3416 0
-3408 -3417 0
-3408 -3418 0
-3408 -3419 0
-3408 -3420 0
-3408 -3421 0
-3409 -3410 0
-3409 -3411 0
-3409 -3412 0
-3409 -3413 0
-3409 -3414 0
-3409 -3415 0
-3409 -3416 0
-3409 -3417 0
-3409 -3418 0
-3409 -3419 0
-3409 -3420 0
-3409 -3421 0
-3410 -3411 0
-3410 -3412 0
-3410 -3413 0
-3410 -3414 0
-3410 -3415 0
-3410 -3416 0
-3410 -3417 0
-3410 -3418 0
-3410 -3419 0
-3410 -3420 0
-3410 -3421 0
-3411 -3412 0
-3411 -3413 0
-3411 -3414 0
-3411 -3415 0
-3411 -3416 0
-3411 -3417 0
-3411 -3418 0
-3411 -3419 0
-3411 -3420 0
-3411 -3421 0
-3412 -3413 0
-3412 -3414 0
-3412 -3415 0
-3412 -3416 0
-3412 -3417 0
-3412 -3418 0
-3412 -3419 0
-3412 -3420 0
-3412 -3421 0
-3413 -3414 0
-3413 -3415 0
-3413 -3416 0
-3413 -3417 0
-3413 -3418 0
-3413 -3419 0
-3413 -3420 0
-3413 -3421 0
-3414 -3415 0
-3414 -3416 0
-3414 -3417 0
-3414 -3418 0
-3414 -3419 0
-3414 -3420 0
-3414 -3421 0
-3415 -3416 0
-3415 -3417 0
-3415 -3418 0
-3415 -3419 0
-3415 -3420 0
-3415 -3421 0
-3416 -3417 0
-3416 -3418 0
-3416 -3419 0
-3416 -3420 0
-3416 -3421 0
-3417 -3418 0
-3417 -3419 0
-3417 -3420 0
-3417 -3421 0
-3418 -3419 0
-3418 -3420 0
-3418 -3421 0
-3419 -3420 0
-3419 -3421 0
-3420 -3421 0
